NAME: instance_1159
TYPE: TSP
DIMENSION: 20
EDGE_WEIGHT_TYPE: EUC_2D
NODE_COORD_SECTION
0 28.01 2.84
1 26.35 1.73
2 47.05 56.68
3 73.89 7.35
4 6.04 51.17
5 14.10 2.05
6 79.87 89.80
7 5.87 27.51
8 89.71 94.37
9 88.22 91.44
10 46.34 81.41
11 23.12 54.38
12 33.62 34.05
13 26.12 50.85
14 38.73 86.20
15 32.68 58.41
16 91.64 34.43
17 85.47 80.01
18 19.79 57.71
19 79.65 73.05
EOF
